p cnf 251 404
4 37 -44 51 52 0
4 37 -44 51 -52 0
4 37 -44 -51 52 0
4 37 -44 -51 -52 0
-4 37 39 53 54 0
-4 37 39 53 -54 0
-4 37 39 -53 54 0
-4 37 39 -53 -54 0
-4 37 -39 55 56 0
-4 37 -39 55 -56 0
-4 37 -39 -55 56 0
-4 37 -39 -55 -56 0
-37 40 -44 57 58 0
-37 40 -44 57 -58 0
-37 40 -44 -57 58 0
-37 40 -44 -57 -58 0
-37 -40 -44 59 60 0
-37 -40 -44 59 -60 0
-37 -40 -44 -59 60 0
-37 -40 -44 -59 -60 0
13 31 44 61 62 0
13 31 44 61 -62 0
13 31 44 -61 62 0
13 31 44 -61 -62 0
-13 31 44 63 64 0
-13 31 44 63 -64 0
-13 31 44 -63 64 0
-13 31 44 -63 -64 0
26 -31 44 65 66 0
26 -31 44 65 -66 0
26 -31 44 -65 66 0
26 -31 44 -65 -66 0
-2 -26 -31 67 68 0
-2 -26 -31 67 -68 0
-2 -26 -31 -67 68 0
-2 -26 -31 -67 -68 0
-26 -31 49 69 70 0
-26 -31 49 69 -70 0
-26 -31 49 -69 70 0
-26 -31 49 -69 -70 0
5 -26 -49 71 72 0
5 -26 -49 71 -72 0
5 -26 -49 -71 72 0
5 -26 -49 -71 -72 0
-5 -27 -49 73 74 0
-5 -27 -49 73 -74 0
-5 -27 -49 -73 74 0
-5 -27 -49 -73 -74 0
-5 -39 -49 75 76 0
-5 -39 -49 75 -76 0
-5 -39 -49 -75 76 0
-5 -39 -49 -75 -76 0
2 -5 43 77 78 0
2 -5 43 77 -78 0
2 -5 43 -77 78 0
2 -5 43 -77 -78 0
-2 39 43 79 80 0
-2 39 43 79 -80 0
-2 39 43 -79 80 0
-2 39 43 -79 -80 0
39 -43 48 81 82 0
39 -43 48 81 -82 0
39 -43 48 -81 82 0
39 -43 48 -81 -82 0
-15 -43 -48 83 84 0
-15 -43 -48 83 -84 0
-15 -43 -48 -83 84 0
-15 -43 -48 -83 -84 0
-34 -43 -48 85 86 0
-34 -43 -48 85 -86 0
-34 -43 -48 -85 86 0
-34 -43 -48 -85 -86 0
28 34 -48 87 88 0
28 34 -48 87 -88 0
28 34 -48 -87 88 0
28 34 -48 -87 -88 0
18 -28 34 89 90 0
18 -28 34 89 -90 0
18 -28 34 -89 90 0
18 -28 34 -89 -90 0
-18 -28 -36 91 92 0
-18 -28 -36 91 -92 0
-18 -28 -36 -91 92 0
-18 -28 -36 -91 -92 0
-18 24 -28 93 94 0
-18 24 -28 93 -94 0
-18 24 -28 -93 94 0
-18 24 -28 -93 -94 0
-3 -18 -24 95 96 0
-3 -18 -24 95 -96 0
-3 -18 -24 -95 96 0
-3 -18 -24 -95 -96 0
3 -12 -24 97 98 0
3 -12 -24 97 -98 0
3 -12 -24 -97 98 0
3 -12 -24 -97 -98 0
5 10 12 99 100 0
5 10 12 99 -100 0
5 10 12 -99 100 0
5 10 12 -99 -100 0
10 12 -24 101 102 0
10 12 -24 101 -102 0
10 12 -24 -101 102 0
10 12 -24 -101 -102 0
-10 12 -20 103 104 0
-10 12 -20 103 -104 0
-10 12 -20 -103 104 0
-10 12 -20 -103 -104 0
-10 20 25 105 106 0
-10 20 25 105 -106 0
-10 20 25 -105 106 0
-10 20 25 -105 -106 0
-10 -25 -35 107 108 0
-10 -25 -35 107 -108 0
-10 -25 -35 -107 108 0
-10 -25 -35 -107 -108 0
20 23 -25 109 110 0
20 23 -25 109 -110 0
20 23 -25 -109 110 0
20 23 -25 -109 -110 0
2 20 23 111 112 0
2 20 23 111 -112 0
2 20 23 -111 112 0
2 20 23 -111 -112 0
-2 23 -39 113 114 0
-2 23 -39 113 -114 0
-2 23 -39 -113 114 0
-2 23 -39 -113 -114 0
-19 -23 -25 115 116 0
-19 -23 -25 115 -116 0
-19 -23 -25 -115 116 0
-19 -23 -25 -115 -116 0
19 -23 47 117 118 0
19 -23 47 117 -118 0
19 -23 47 -117 118 0
19 -23 47 -117 -118 0
19 -20 47 119 120 0
19 -20 47 119 -120 0
19 -20 47 -119 120 0
19 -20 47 -119 -120 0
13 43 -47 121 122 0
13 43 -47 121 -122 0
13 43 -47 -121 122 0
13 43 -47 -121 -122 0
13 -23 -47 123 124 0
13 -23 -47 123 -124 0
13 -23 -47 -123 124 0
13 -23 -47 -123 -124 0
-13 14 34 125 126 0
-13 14 34 125 -126 0
-13 14 34 -125 126 0
-13 14 34 -125 -126 0
14 17 -34 127 128 0
14 17 -34 127 -128 0
14 17 -34 -127 128 0
14 17 -34 -127 -128 0
14 -17 -34 129 130 0
14 -17 -34 129 -130 0
14 -17 -34 -129 130 0
14 -17 -34 -129 -130 0
-13 22 -47 131 132 0
-13 22 -47 131 -132 0
-13 22 -47 -131 132 0
-13 22 -47 -131 -132 0
-14 -22 29 133 134 0
-14 -22 29 133 -134 0
-14 -22 29 -133 134 0
-14 -22 29 -133 -134 0
-21 -22 35 135 136 0
-21 -22 35 135 -136 0
-21 -22 35 -135 136 0
-21 -22 35 -135 -136 0
-22 -29 -35 137 138 0
-22 -29 -35 137 -138 0
-22 -29 -35 -137 138 0
-22 -29 -35 -137 -138 0
-29 33 41 139 140 0
-29 33 41 139 -140 0
-29 33 41 -139 140 0
-29 33 41 -139 -140 0
1 33 -41 141 142 0
1 33 -41 141 -142 0
1 33 -41 -141 142 0
1 33 -41 -141 -142 0
-1 33 -41 143 144 0
-1 33 -41 143 -144 0
-1 33 -41 -143 144 0
-1 33 -41 -143 -144 0
16 -29 -33 145 146 0
16 -29 -33 145 -146 0
16 -29 -33 -145 146 0
16 -29 -33 -145 -146 0
-16 21 50 147 148 0
-16 21 50 147 -148 0
-16 21 50 -147 148 0
-16 21 50 -147 -148 0
27 -33 42 149 150 0
27 -33 42 149 -150 0
27 -33 42 -149 150 0
27 -33 42 -149 -150 0
27 -42 50 151 152 0
27 -42 50 151 -152 0
27 -42 50 -151 152 0
27 -42 50 -151 -152 0
-21 -27 50 153 154 0
-21 -27 50 153 -154 0
-21 -27 50 -153 154 0
-21 -27 50 -153 -154 0
-11 -16 -33 155 156 0
-11 -16 -33 155 -156 0
-11 -16 -33 -155 156 0
-11 -16 -33 -155 -156 0
8 22 -50 157 158 0
8 22 -50 157 -158 0
8 22 -50 -157 158 0
8 22 -50 -157 -158 0
8 -16 -50 159 160 0
8 -16 -50 159 -160 0
8 -16 -50 -159 160 0
8 -16 -50 -159 -160 0
-8 46 -50 161 162 0
-8 46 -50 161 -162 0
-8 46 -50 -161 162 0
-8 46 -50 -161 -162 0
-6 -8 -46 163 164 0
-6 -8 -46 163 -164 0
-6 -8 -46 -163 164 0
-6 -8 -46 -163 -164 0
1 -8 -17 165 166 0
1 -8 -17 165 -166 0
1 -8 -17 -165 166 0
1 -8 -17 -165 -166 0
-1 -17 -46 167 168 0
-1 -17 -46 167 -168 0
-1 -17 -46 -167 168 0
-1 -17 -46 -167 -168 0
6 42 45 169 170 0
6 42 45 169 -170 0
6 42 45 -169 170 0
6 42 45 -169 -170 0
6 42 -46 171 172 0
6 42 -46 171 -172 0
6 42 -46 -171 172 0
6 42 -46 -171 -172 0
6 -37 -42 173 174 0
6 -37 -42 173 -174 0
6 -37 -42 -173 174 0
6 -37 -42 -173 -174 0
15 17 45 175 176 0
15 17 45 175 -176 0
15 17 45 -175 176 0
15 17 45 -175 -176 0
-15 17 45 177 178 0
-15 17 45 177 -178 0
-15 17 45 -177 178 0
-15 17 45 -177 -178 0
9 -42 -45 179 180 0
9 -42 -45 179 -180 0
9 -42 -45 -179 180 0
9 -42 -45 -179 -180 0
-9 38 -45 181 182 0
-9 38 -45 181 -182 0
-9 38 -45 -181 182 0
-9 38 -45 -181 -182 0
-7 -38 -45 183 184 0
-7 -38 -45 183 -184 0
-7 -38 -45 -183 184 0
-7 -38 -45 -183 -184 0
-1 -9 -38 185 186 0
-1 -9 -38 185 -186 0
-1 -9 -38 -185 186 0
-1 -9 -38 -185 -186 0
7 15 -30 187 188 0
7 15 -30 187 -188 0
7 15 -30 -187 188 0
7 15 -30 -187 -188 0
7 -30 -38 189 190 0
7 -30 -38 189 -190 0
7 -30 -38 -189 190 0
7 -30 -38 -189 -190 0
7 30 -41 191 192 0
7 30 -41 191 -192 0
7 30 -41 -191 192 0
7 30 -41 -191 -192 0
10 30 -40 193 194 0
10 30 -40 193 -194 0
10 30 -40 -193 194 0
10 30 -40 -193 -194 0
30 -40 41 195 196 0
30 -40 41 195 -196 0
30 -40 41 -195 196 0
30 -40 41 -195 -196 0
-4 15 40 197 198 0
-4 15 40 197 -198 0
-4 15 40 -197 198 0
-4 15 40 -197 -198 0
-15 40 41 199 200 0
-15 40 41 199 -200 0
-15 40 41 -199 200 0
-15 40 41 -199 -200 0
4 -32 35 201 202 0
4 -32 35 201 -202 0
4 -32 35 -201 202 0
4 -32 35 -201 -202 0
4 21 -32 203 204 0
4 21 -32 203 -204 0
4 21 -32 -203 204 0
4 21 -32 -203 -204 0
-21 -32 -35 205 206 0
-21 -32 -35 205 -206 0
-21 -32 -35 -205 206 0
-21 -32 -35 -205 -206 0
-30 35 46 207 208 0
-30 35 46 207 -208 0
-30 35 46 -207 208 0
-30 35 46 -207 -208 0
21 22 46 209 210 0
21 22 46 209 -210 0
21 22 46 -209 210 0
21 22 46 -209 -210 0
-11 26 28 211 212 0
-11 26 28 211 -212 0
-11 26 28 -211 212 0
-11 26 28 -211 -212 0
29 -36 49 213 214 0
29 -36 49 213 -214 0
29 -36 49 -213 214 0
29 -36 49 -213 -214 0
5 18 36 215 216 0
5 18 36 215 -216 0
5 18 36 -215 216 0
5 18 36 -215 -216 0
-7 9 49 217 218 0
-7 9 49 217 -218 0
-7 9 49 -217 218 0
-7 9 49 -217 -218 0
19 36 48 219 220 0
19 36 48 219 -220 0
19 36 48 -219 220 0
19 36 48 -219 -220 0
-3 -14 16 221 222 0
-3 -14 16 221 -222 0
-3 -14 16 -221 222 0
-3 -14 16 -221 -222 0
24 31 32 223 224 0
24 31 32 223 -224 0
24 31 32 -223 224 0
24 31 32 -223 -224 0
2 24 32 225 226 0
2 24 32 225 -226 0
2 24 32 -225 226 0
2 24 32 -225 -226 0
3 38 48 227 228 0
3 38 48 227 -228 0
3 38 48 -227 228 0
3 38 48 -227 -228 0
-7 8 16 229 230 0
-7 8 16 229 -230 0
-7 8 16 -229 230 0
-7 8 16 -229 -230 0
1 -11 -19 231 232 0
1 -11 -19 231 -232 0
1 -11 -19 -231 232 0
1 -11 -19 -231 -232 0
11 29 36 233 234 0
11 29 36 233 -234 0
11 29 36 -233 234 0
11 29 36 -233 -234 0
3 -14 25 235 236 0
3 -14 25 235 -236 0
3 -14 25 -235 236 0
3 -14 25 -235 -236 0
-3 38 47 237 238 0
-3 38 47 237 -238 0
-3 38 47 -237 238 0
-3 38 47 -237 -238 0
-6 9 -12 239 240 0
-6 9 -12 239 -240 0
-6 9 -12 -239 240 0
-6 9 -12 -239 -240 0
11 26 241 242 243 0
11 26 241 242 -243 0
11 26 241 -242 243 0
11 26 241 -242 -243 0
11 26 -241 242 243 0
11 26 -241 242 -243 0
11 26 -241 -242 243 0
11 26 -241 -242 -243 0
-12 25 28 244 245 0
-12 25 28 244 -245 0
-12 25 28 -244 245 0
-12 25 28 -244 -245 0
18 -19 -36 246 247 0
18 -19 -36 246 -247 0
18 -19 -36 -246 247 0
18 -19 -36 -246 -247 0
-6 -9 27 248 249 0
-6 -9 27 248 -249 0
-6 -9 27 -248 249 0
-6 -9 27 -248 -249 0
-20 -27 32 250 251 0
-20 -27 32 250 -251 0
-20 -27 32 -250 251 0
-20 -27 32 -250 -251 0
